p wcnf 181 272 273 
1 -28 -121 0 
1 -164 -17 0 
1 40 -151 0 
1 97 71 0 
1 -163 28 0 
1 54 171 0 
1 77 -135 0 
1 -79 -83 0 
1 -39 -113 0 
1 -52 24 0 
1 -54 -147 0 
1 -30 100 0 
1 111 71 0 
1 -101 38 0 
1 80 -173 0 
1 19 164 0 
1 21 -165 0 
1 50 85 0 
1 -32 -115 0 
1 102 -150 0 
1 47 29 0 
1 -104 -92 0 
1 -103 -62 0 
1 -36 56 0 
1 -104 82 0 
1 -21 123 0 
1 62 166 0 
1 -88 129 0 
1 124 119 0 
1 -102 -28 0 
1 -170 43 0 
1 177 -45 0 
1 -138 176 0 
1 10 -165 0 
1 4 71 0 
1 157 -68 0 
1 168 -89 0 
1 79 28 0 
1 -121 -31 0 
1 125 -9 0 
1 -141 -17 0 
1 -132 162 0 
1 37 152 0 
1 -180 -80 0 
1 -107 81 0 
1 81 -162 0 
1 -3 6 0 
1 -130 92 0 
1 -145 -156 0 
1 63 -22 0 
1 22 116 0 
1 35 63 0 
1 176 -27 0 
1 -50 132 0 
1 -100 -79 0 
1 -39 -23 0 
1 -30 -153 0 
1 -165 -109 0 
1 79 -132 0 
1 72 77 0 
1 -21 179 0 
1 51 -119 0 
1 117 12 0 
1 -163 -108 0 
1 71 16 0 
1 56 120 0 
1 178 128 0 
1 143 163 0 
1 -174 89 0 
1 41 174 0 
1 131 111 0 
1 78 -116 0 
1 16 -22 0 
1 127 137 0 
1 53 -44 0 
1 86 -3 0 
1 -136 -63 0 
1 -70 -99 0 
1 58 -16 0 
1 -24 -115 0 
1 6 -101 0 
1 -99 -2 0 
1 -57 150 0 
1 83 78 0 
1 53 12 0 
1 -91 151 0 
1 -154 100 0 
1 -178 -22 0 
1 -104 -22 0 
1 139 -127 0 
1 98 -128 0 
1 -97 -32 0 
1 -94 -102 0 
1 88 160 0 
1 107 -111 0 
1 92 -105 0 
1 50 -110 0 
1 -102 -177 0 
1 60 -56 0 
1 32 171 0 
1 35 169 0 
1 -102 19 0 
1 -175 -95 0 
1 158 170 0 
1 -170 -36 0 
1 98 -130 0 
1 102 -117 0 
1 -131 12 0 
1 -141 -5 0 
1 167 133 0 
1 -147 -27 0 
1 -99 91 0 
1 172 -116 0 
1 -87 -145 0 
1 -12 -87 0 
1 -24 6 0 
1 -180 139 0 
1 161 -104 0 
1 -168 80 0 
1 -86 -62 0 
1 123 -94 0 
1 91 77 0 
1 -27 60 0 
1 60 138 0 
1 57 -134 0 
1 58 139 0 
1 -141 21 0 
1 -13 148 0 
1 -145 114 0 
1 122 -81 0 
1 -7 -144 0 
1 120 -102 0 
1 137 -50 0 
1 15 -74 0 
1 4 -49 0 
1 -32 142 0 
1 47 -170 0 
1 174 -123 0 
1 -116 -4 0 
1 129 35 0 
1 153 122 0 
1 131 160 0 
1 -36 -85 0 
1 78 114 0 
1 125 34 0 
1 63 125 0 
1 20 -138 0 
1 132 -8 0 
1 -113 7 0 
1 111 -39 0 
1 -87 -56 0 
1 -156 155 0 
1 -7 170 0 
1 39 31 0 
1 -55 -144 0 
1 126 133 0 
1 130 -42 0 
1 -104 -52 0 
1 93 -101 0 
1 -144 43 0 
1 -122 66 0 
1 175 72 0 
1 87 177 0 
1 -22 71 0 
1 51 -107 0 
1 4 -148 0 
1 108 154 0 
1 49 -152 0 
1 -102 70 0 
1 93 -26 0 
1 171 170 0 
1 31 48 0 
1 50 -20 0 
1 -29 -130 0 
1 33 148 0 
1 89 63 0 
1 -170 53 0 
1 113 144 0 
1 -42 -133 0 
1 -20 -104 0 
1 -73 -3 0 
1 -4 -47 0 
1 -167 -67 0 
1 168 -104 0 
1 134 107 0 
1 25 -161 0 
1 104 -167 0 
1 -35 47 0 
1 142 42 0 
1 -63 105 0 
1 156 -10 0 
1 -128 -40 0 
1 -19 51 0 
1 -173 -94 0 
1 -139 -22 0 
1 -163 128 0 
1 -41 -74 0 
1 -70 75 0 
1 66 -127 0 
1 -44 32 0 
1 -32 -151 0 
1 83 -53 0 
1 169 23 0 
1 50 -60 0 
1 -31 -47 0 
1 -50 -19 0 
1 -101 80 0 
1 -59 41 0 
1 149 68 0 
1 -180 -110 0 
1 85 -104 0 
1 21 62 0 
1 -33 -140 0 
1 -88 -141 0 
1 -3 -39 0 
1 81 12 0 
1 111 -79 0 
1 -148 -173 0 
1 -146 161 0 
1 -16 -5 0 
1 -102 130 0 
1 28 8 0 
1 -169 43 0 
1 -46 -80 0 
1 168 66 0 
1 96 -9 0 
1 80 -82 0 
1 -66 -162 0 
1 144 100 0 
1 -76 129 0 
1 57 -173 0 
1 141 44 0 
1 93 -7 0 
1 26 -12 0 
1 -64 -6 0 
1 13 161 0 
1 7 -17 0 
1 -69 -162 0 
1 64 -102 0 
1 -74 65 0 
1 -7 60 0 
1 37 -139 0 
1 -107 21 0 
1 128 1 0 
1 -122 119 0 
1 18 -141 0 
1 99 -12 0 
1 -12 148 0 
1 25 166 0 
1 43 22 0 
1 -101 151 0 
1 22 -13 0 
1 129 -155 0 
1 -7 32 0 
1 -21 33 0 
1 155 139 0 
1 -108 59 0 
1 -157 -26 0 
1 154 -34 0 
1 -130 15 0 
1 -63 155 0 
1 -177 60 0 
1 -158 12 0 
1 67 -133 0 
1 -79 -114 0 
1 125 -148 0 
1 -102 7 0 
1 112 48 0 
1 22 91 0 
1 -150 -92 0 
1 7 -181 0 
1 162 79 0 
